DIMENSION: 32
EDGE_WEIGHT_TYPE: EXPLICIT
EDGE_WEIGHT_FORMAT: FULL_MATRIX
EDGE_WEIGHT_SECTION:
32767 32767 32767 32767 32767 32767 32767 32767 32767 51 32767 73 99 32767 32767 32767 32767 32767 32767 84 41 32767 32767 41 32767 32767 32767 15 22 32767 32767 32767 
32767 32767 32767 32767 80 32767 79 32767 32767 81 32767 32767 20 97 26 32767 32767 24 32767 32767 3 24 95 65 32767 69 36 5 32767 41 32767 32767 
32767 32767 32767 32767 32767 32767 32767 32767 32767 32767 32767 3 68 11 32767 58 32767 32767 32767 32767 32767 32767 79 32767 32767 32767 32767 100 32767 32767 32767 32767 
32767 32767 32767 32767 32767 93 69 32767 36 32767 32767 32767 32767 48 32767 32767 32767 4 32767 32767 6 28 32767 20 32767 32767 32767 2 40 32767 32767 32767 
32767 80 32767 32767 32767 32767 75 32767 81 32767 32767 32767 32767 57 31 32767 32767 79 32767 32767 32767 32767 32767 32767 32767 32767 32767 32767 89 16 32767 3 
32767 32767 32767 93 32767 32767 32767 32767 61 3 32767 32767 32767 32767 32767 32767 89 32767 32767 54 42 32767 32767 32767 21 32767 88 7 32767 32767 32767 95 
32767 79 32767 69 75 32767 32767 32767 32767 32767 32767 32767 71 32767 32767 46 1 24 32 32767 32767 32767 32767 32767 32767 32767 32767 32767 32767 32767 32767 32767 
32767 32767 32767 32767 32767 32767 32767 32767 35 85 32767 32767 32767 32767 32767 28 32767 29 32767 32767 32767 32767 9 49 43 3 32767 32767 32767 32767 69 10 
32767 32767 32767 36 81 61 32767 35 32767 29 32767 32767 32767 32767 32767 32767 32767 32767 32767 48 32767 32767 32767 32767 39 32767 32767 32767 32767 32767 27 75 
51 81 32767 32767 32767 3 32767 85 29 32767 64 52 45 41 32767 32767 32767 32767 32767 32767 32767 51 32767 32767 18 32767 32767 32767 64 32767 32767 40 
32767 32767 32767 32767 32767 32767 32767 32767 32767 64 32767 32767 32767 32 32767 32767 32767 32767 32767 32767 32767 55 27 32767 32767 32767 32767 65 32767 32767 62 80 
73 32767 3 32767 32767 32767 32767 32767 32767 52 32767 32767 32767 32767 32767 32767 32767 13 32767 32767 32767 32767 32767 32767 2 32767 15 32767 32767 32767 64 32767 
99 20 68 32767 32767 32767 71 32767 32767 45 32767 32767 32767 32767 99 32767 32767 16 32767 32767 32767 32767 32767 32767 32767 6 32767 32767 32767 32767 37 32767 
32767 97 11 48 57 32767 32767 32767 32767 41 32 32767 32767 32767 51 10 32767 32767 32767 32767 22 32767 33 32767 32767 53 32767 32767 32767 32767 32767 32767 
32767 26 32767 32767 31 32767 32767 32767 32767 32767 32767 32767 99 51 32767 32767 32767 32767 32767 33 32767 32767 32767 32767 32767 32767 53 32767 32767 32767 8 32767 
32767 32767 58 32767 32767 32767 46 28 32767 32767 32767 32767 32767 10 32767 32767 32767 32767 32767 32767 32767 32767 32767 32767 32767 61 32767 32767 32767 39 7 48 
32767 32767 32767 32767 32767 89 1 32767 32767 32767 32767 32767 32767 32767 32767 32767 32767 32767 51 32767 32767 59 35 32767 32767 32767 32767 32767 32767 32767 78 32767 
32767 24 32767 4 79 32767 24 29 32767 32767 32767 13 16 32767 32767 32767 32767 32767 47 32767 32767 32767 32767 32767 68 32 32767 32767 32767 32767 32767 51 
32767 32767 32767 32767 32767 32767 32 32767 32767 32767 32767 32767 32767 32767 32767 32767 51 47 32767 32767 85 32767 57 32767 32767 31 56 30 32767 32767 32767 32767 
84 32767 32767 32767 32767 54 32767 32767 48 32767 32767 32767 32767 32767 33 32767 32767 32767 32767 32767 32767 29 55 32767 92 78 32767 28 32767 32767 32767 32767 
41 3 32767 6 32767 42 32767 32767 32767 32767 32767 32767 32767 22 32767 32767 32767 32767 85 32767 32767 32767 32767 32767 32767 32767 32767 32767 32767 32767 32767 12 
32767 24 32767 28 32767 32767 32767 32767 32767 51 55 32767 32767 32767 32767 32767 59 32767 32767 29 32767 32767 3 32767 32767 32767 41 32767 84 72 72 32767 
32767 95 79 32767 32767 32767 32767 9 32767 32767 27 32767 32767 33 32767 32767 35 32767 57 55 32767 3 32767 32767 32767 75 87 32767 32767 32767 30 32767 
41 65 32767 20 32767 32767 32767 49 32767 32767 32767 32767 32767 32767 32767 32767 32767 32767 32767 32767 32767 32767 32767 32767 32767 32767 32767 32767 32767 19 32767 32767 
32767 32767 32767 32767 32767 21 32767 43 39 18 32767 2 32767 32767 32767 32767 32767 68 32767 92 32767 32767 32767 32767 32767 32767 32767 32767 32767 12 32767 83 
32767 69 32767 32767 32767 32767 32767 3 32767 32767 32767 32767 6 53 32767 61 32767 32 31 78 32767 32767 75 32767 32767 32767 31 32767 32767 32767 32767 32767 
32767 36 32767 32767 32767 88 32767 32767 32767 32767 32767 15 32767 32767 53 32767 32767 32767 56 32767 32767 41 87 32767 32767 31 32767 32767 32767 4 32767 32767 
15 5 100 2 32767 7 32767 32767 32767 32767 65 32767 32767 32767 32767 32767 32767 32767 30 28 32767 32767 32767 32767 32767 32767 32767 32767 32767 32767 32767 61 
22 32767 32767 40 89 32767 32767 32767 32767 64 32767 32767 32767 32767 32767 32767 32767 32767 32767 32767 32767 84 32767 32767 32767 32767 32767 32767 32767 24 32767 32767 
32767 41 32767 32767 16 32767 32767 32767 32767 32767 32767 32767 32767 32767 32767 39 32767 32767 32767 32767 32767 72 32767 19 12 32767 4 32767 24 32767 32767 32767 
32767 32767 32767 32767 32767 32767 32767 69 27 32767 62 64 37 32767 8 7 78 32767 32767 32767 32767 72 30 32767 32767 32767 32767 32767 32767 32767 32767 72 
32767 32767 32767 32767 3 95 32767 10 75 40 80 32767 32767 32767 32767 48 32767 51 32767 32767 12 32767 32767 32767 83 32767 32767 61 32767 32767 72 32767 
EOF